s = 4;
m = 13;
heap_size = 3;

bottom = 1;

layout = array2d(1..17,1..3, [
7, 52, 8, 
45, 2, 19, 
25, 12, 47, 
24, 9, 41, 
16, 18, 3, 
38, 36, 49, 
11, 33, 51, 
39, 10, 14, 
20, 27, 46, 
29, 50, 35, 
4, 32, 17, 
15, 13, 5, 
23, 34, 28, 
48, 21, 42, 
6, 22, 30, 
43, 40, 26, 
37, 44, 31
]);
